n = 8;
k = 2;
maxsize = 8;
nML = 2;
nCL = 2;
deg = [3, 3, 1, 1, 2, 1, 1, 2];
ML = array2d(1..2, 1..2, [5, 6, 1, 4]);
CL = array2d(1..2, 1..2, [7, 8, 2, 3]);
A = array2d(1..8, 1..8, [ 0, 1, 0, 0, 1, 1, 0, 0, 1, 0, 1, 0, 0, 0, 0, 1, 0, 1, 0, 0, 0, 0, 0, 0, 0, 0, 0, 0, 0, 0, 1, 0, 1, 0, 0, 0, 0, 0, 0, 1, 1, 0, 0, 0, 0, 0, 0, 0, 0, 0, 0, 1, 0, 0, 0, 0, 0, 1, 0, 0, 1, 0, 0, 0 ]);
W = array2d(1..8, 1..8, [ -6, 8, -2, 10, 3, -10, 4, -5, -4, 6, -3, -4, -5, 6, 9, -6, 3, -3, -5, -9, -10, -4, -10, -9, 10, -9, 6, 9, -10, 10, 1, -1, -5, 5, 7, -6, -4, -1, 10, -6, -2, 8, -1, -4, 9, 7, 10, 7, 2, -9, 10, -4, -10, -5, -3, -7, -7, 8, -6, 9, 6, 10, -5, -6 ]);